//Number of items      		
158
//Bin Capacity      
1000
//Known Best Solution  		
71
//Weight of Item
     783         2
     782         1
     780         1
     774         2
     768         1
     764         1
     757         1
     753         1
     751         1
     750         1
     748         1
     743         2
     718         1
     713         1
     712         1
     706         1
     705         1
     695         1
     688         1
     686         1
     685         1
     684         1
     675         1
     674         2
     673         1
     671         1
     666         2
     665         1
     647         1
     641         1
     638         2
     637         1
     634         1
     629         1
     613         2
     604         1
     600         1
     599         1
     593         1
     588         1
     584         1
     570         1
     569         2
     567         1
     565         1
     556         1
     552         1
     549         1
     548         1
     545         1
     544         1
     538         1
     525         1
     524         2
     523         1
     505         1
     504         1
     501         1
     496         1
     493         1
     490         1
     487         1
     486         1
     485         1
     481         1
     476         1
     471         1
     470         1
     468         1
     463         1
     460         1
     457         1
     454         1
     444         1
     443         3
     439         1
     438         1
     436         1
     434         1
     431         1
     426         1
     422         1
     419         1
     412         1
     395         1
     380         1
     366         1
     354         1
     340         1
     334         1
     324         2
     323         1
     320         1
     317         1
     316         1
     309         1
     301         1
     299         1
     290         1
     288         1
     286         1
     272         1
     271         1
     264         1
     253         2
     239         2
     231         3
     226         2
     214         2
     204         1
     189         1
     184         1
     177         1
     174         1
     172         1
     169         2
     168         1
     163         1
     160         1
     152         1
     149         1
     144         1
     142         1
     137         1
     135         1
     123         1
     122         1
     121         1
     120         2
     113         1
     109         1
     108         1
     106         1
     105         1
     103         1
     100         1
      98         1
      97         1
      94         1
      92         1
      90         2
      86         1
      84         1
      74         1
      66         1
      64         1
      59         1
      56         1
      54         1
      51         1
      46         1
      43         1
      40         1
      38         1
      36         1
      16         1
      14         2
       3         1